
n_res = 6;
rcap = [26, 31, 28, 27, 768, 757];
rtype = [1, 1, 1, 1, 2, 2];
n_tasks = 50;
modes =  [{1, 2, 3, 4, 5, 6}, {7, 8, 9, 10, 11, 12}, {13, 14, 15, 16, 17, 18}, {19, 20, 21, 22, 23, 24}, {25, 26, 27, 28, 29, 30}, {31, 32, 33, 34, 35, 36}, {37, 38, 39, 40, 41, 42}, {43, 44, 45, 46, 47, 48}, {49, 50, 51, 52, 53, 54}, {55, 56, 57, 58, 59, 60}, {61, 62, 63, 64, 65, 66}, {67, 68, 69, 70, 71, 72}, {73, 74, 75, 76, 77, 78}, {79, 80, 81, 82, 83, 84}, {85, 86, 87, 88, 89, 90}, {91, 92, 93, 94, 95, 96}, {97, 98, 99, 100, 101, 102}, {103, 104, 105, 106, 107, 108}, {109, 110, 111, 112, 113, 114}, {115, 116, 117, 118, 119, 120}, {121, 122, 123, 124, 125, 126}, {127, 128, 129, 130, 131, 132}, {133, 134, 135, 136, 137, 138}, {139, 140, 141, 142, 143, 144}, {145, 146, 147, 148, 149, 150}, {151, 152, 153, 154, 155, 156}, {157, 158, 159, 160, 161, 162}, {163, 164, 165, 166, 167, 168}, {169, 170, 171, 172, 173, 174}, {175, 176, 177, 178, 179, 180}, {181, 182, 183, 184, 185, 186}, {187, 188, 189, 190, 191, 192}, {193, 194, 195, 196, 197, 198}, {199, 200, 201, 202, 203, 204}, {205, 206, 207, 208, 209, 210}, {211, 212, 213, 214, 215, 216}, {217, 218, 219, 220, 221, 222}, {223, 224, 225, 226, 227, 228}, {229, 230, 231, 232, 233, 234}, {235, 236, 237, 238, 239, 240}, {241, 242, 243, 244, 245, 246}, {247, 248, 249, 250, 251, 252}, {253, 254, 255, 256, 257, 258}, {259, 260, 261, 262, 263, 264}, {265, 266, 267, 268, 269, 270}, {271, 272, 273, 274, 275, 276}, {277, 278, 279, 280, 281, 282}, {283, 284, 285, 286, 287, 288}, {289, 290, 291, 292, 293, 294}, {295, 296, 297, 298, 299, 300}];
succ =  [{21, 18, 17, 14, 12, 10, 7}, {25, 21, 14, 9, 8}, {27, 25, 24, 20, 19, 18, 14, 13}, {34, 25, 19, 18, 16, 15, 14}, {25, 24, 21, 20, 19, 9}, {31, 28, 27, 26, 22, 21, 20, 19, 18}, {36, 34, 31, 30, 29, 28, 27, 26, 25, 23, 20}, {27, 26, 24, 20, 19, 18}, {36, 34, 33, 32, 29, 27, 26, 22, 18}, {36, 35, 34, 33, 31, 30, 29, 27, 26, 23, 22}, {36, 34, 33, 32, 29, 27, 26, 24, 22, 21}, {36, 32, 29, 28, 24, 16}, {41, 36, 32, 31, 28, 26, 23, 22}, {41, 36, 33, 32, 31, 28, 23}, {36, 35, 31, 27, 22}, {39, 35, 31, 30, 26}, {41, 34, 29, 24, 22}, {48, 37, 35, 30, 23}, {50, 49, 48, 40, 36, 32, 29}, {50, 49, 47, 46, 45, 41, 40, 37, 33}, {50, 49, 48, 44, 41, 39, 37, 35}, {50, 49, 48, 47, 46, 42, 40, 37}, {50, 49, 47, 42, 40, 39, 38}, {49, 48, 44, 42, 39, 37}, {47, 46, 45, 44, 42, 37}, {50, 48, 47, 46, 42, 40}, {47, 44, 43, 41, 39}, {49, 48, 45, 44, 35}, {47, 46, 45, 37}, {50, 47, 41, 40}, {49, 46, 44, 37}, {39, 37}, {48, 38}, {42, 38}, {46, 42}, {45, 42}, {38}, {43}, {45}, {44}, {42}, {}, {}, {}, {}, {}, {}, {}, {}, {}];
n_opt = 300;
dur = [10, 11, 12, 13, 28, 29, 4, 7, 9, 15, 16, 18, 4, 9, 14, 23, 26, 27, 3, 6, 9, 11, 16, 23, 7, 8, 11, 16, 24, 27, 6, 9, 18, 19, 25, 27, 1, 14, 18, 19, 25, 27, 2, 8, 15, 19, 29, 30, 2, 3, 5, 13, 27, 28, 7, 8, 13, 27, 28, 29, 11, 12, 18, 22, 27, 29, 4, 5, 6, 7, 8, 24, 6, 8, 9, 15, 20, 27, 2, 3, 4, 6, 15, 25, 6, 7, 9, 10, 18, 29, 7, 14, 15, 16, 23, 25, 4, 5, 18, 20, 21, 25, 5, 6, 8, 13, 22, 27, 10, 16, 17, 20, 25, 27, 7, 10, 13, 21, 24, 25, 3, 4, 7, 8, 12, 19, 2, 8, 11, 14, 17, 22, 3, 7, 21, 23, 26, 30, 1, 3, 10, 12, 19, 28, 7, 9, 15, 20, 27, 28, 2, 9, 22, 23, 25, 28, 1, 7, 16, 22, 25, 28, 4, 12, 20, 28, 29, 30, 2, 10, 17, 24, 27, 28, 2, 7, 10, 13, 16, 26, 1, 4, 9, 11, 18, 22, 4, 5, 17, 19, 23, 25, 7, 13, 17, 22, 28, 30, 10, 11, 18, 20, 22, 24, 2, 5, 6, 12, 13, 17, 14, 18, 24, 25, 26, 27, 2, 4, 13, 19, 22, 25, 1, 4, 13, 17, 23, 24, 9, 10, 12, 13, 17, 28, 9, 19, 21, 22, 26, 29, 8, 9, 19, 20, 26, 29, 5, 6, 8, 18, 25, 28, 2, 4, 7, 8, 11, 27, 5, 9, 12, 16, 17, 20, 1, 5, 20, 23, 24, 29, 1, 5, 9, 10, 20, 28, 3, 4, 5, 14, 15, 19, 9, 10, 13, 15, 18, 29, 6, 7, 8, 18, 24, 25, 6, 15, 16, 19, 22, 26];
rreq = [|4, 4, 4, 3, 3, 3, 2, 2, 2, 2, 2, 2, 5, 5, 5, 5, 5, 5, 5, 4, 3, 3, 1, 1, 3, 3, 3, 3, 2, 2, 3, 3, 3, 3, 2, 2, 5, 5, 5, 5, 5, 5, 3, 3, 3, 3, 3, 3, 5, 4, 4, 4, 3, 3, 3, 3, 3, 3, 3, 3, 2, 1, 1, 1, 1, 1, 4, 3, 3, 2, 2, 1, 3, 3, 3, 3, 3, 3, 5, 4, 4, 4, 3, 3, 5, 4, 3, 2, 1, 1, 5, 4, 4, 4, 4, 4, 4, 3, 3, 3, 3, 3, 3, 3, 3, 3, 2, 2, 5, 4, 3, 3, 2, 1, 2, 2, 2, 2, 1, 1, 3, 2, 2, 2, 2, 2, 2, 2, 2, 1, 1, 1, 4, 4, 3, 3, 3, 2, 3, 3, 2, 2, 2, 1, 5, 5, 5, 5, 5, 5, 1, 1, 1, 1, 1, 1, 4, 3, 3, 2, 2, 1, 5, 3, 3, 3, 2, 1, 5, 4, 4, 3, 2, 2, 2, 2, 2, 2, 2, 2, 2, 2, 2, 1, 1, 1, 4, 3, 3, 2, 2, 1, 2, 1, 1, 1, 1, 1, 2, 2, 2, 2, 2, 2, 4, 3, 3, 3, 1, 1, 3, 3, 3, 3, 3, 3, 1, 1, 1, 1, 1, 1, 2, 2, 2, 2, 2, 2, 1, 1, 1, 1, 1, 1, 4, 3, 3, 3, 3, 3, 5, 4, 4, 4, 3, 3, 5, 4, 4, 4, 3, 3, 2, 2, 2, 2, 2, 2, 1, 1, 1, 1, 1, 1, 5, 5, 5, 5, 5, 5, 2, 2, 2, 1, 1, 1, 4, 3, 3, 3, 3, 3, 5, 4, 4, 4, 4, 4, 2, 1, 1, 1, 1, 1, 4, 4, 4, 4, 4, 4
 |5, 5, 5, 5, 5, 5, 4, 3, 3, 3, 2, 2, 1, 1, 1, 1, 1, 1, 3, 3, 3, 3, 3, 3, 3, 3, 3, 3, 3, 3, 3, 2, 2, 2, 1, 1, 3, 2, 2, 2, 2, 2, 4, 4, 3, 3, 1, 1, 2, 2, 2, 2, 2, 2, 3, 3, 3, 3, 3, 3, 4, 4, 4, 3, 3, 2, 4, 3, 3, 3, 3, 3, 1, 1, 1, 1, 1, 1, 4, 3, 3, 3, 2, 1, 4, 4, 4, 4, 4, 4, 4, 4, 3, 3, 2, 2, 4, 4, 4, 3, 3, 3, 5, 3, 3, 2, 1, 1, 2, 2, 2, 2, 2, 2, 2, 1, 1, 1, 1, 1, 4, 3, 2, 2, 1, 1, 4, 3, 3, 3, 3, 3, 2, 2, 2, 2, 2, 2, 4, 4, 3, 3, 3, 2, 4, 4, 3, 3, 2, 2, 4, 4, 4, 4, 4, 4, 2, 2, 2, 2, 2, 2, 2, 2, 2, 2, 2, 2, 4, 3, 3, 3, 3, 3, 3, 3, 3, 3, 3, 3, 4, 4, 4, 3, 3, 3, 4, 4, 4, 3, 3, 2, 2, 2, 2, 2, 2, 2, 3, 3, 3, 2, 2, 2, 5, 4, 4, 3, 2, 2, 3, 3, 3, 3, 3, 3, 4, 4, 3, 3, 3, 2, 5, 5, 5, 5, 5, 5, 5, 3, 3, 2, 1, 1, 5, 5, 5, 5, 5, 5, 3, 3, 3, 3, 2, 2, 3, 3, 3, 3, 3, 3, 2, 1, 1, 1, 1, 1, 4, 4, 4, 4, 4, 4, 2, 2, 2, 2, 1, 1, 5, 4, 4, 4, 4, 4, 5, 5, 5, 5, 5, 5, 3, 3, 3, 2, 2, 2, 1, 1, 1, 1, 1, 1, 4, 3, 3, 3, 2, 2
 |1, 1, 1, 1, 1, 1, 3, 2, 2, 2, 2, 2, 1, 1, 1, 1, 1, 1, 3, 3, 3, 3, 3, 3, 3, 3, 3, 3, 3, 3, 4, 4, 4, 4, 4, 4, 3, 2, 2, 2, 1, 1, 2, 2, 2, 2, 2, 2, 4, 3, 3, 3, 3, 3, 2, 1, 1, 1, 1, 1, 4, 4, 4, 4, 4, 4, 3, 2, 2, 2, 1, 1, 4, 4, 4, 4, 4, 4, 4, 4, 4, 4, 4, 4, 4, 4, 4, 4, 4, 4, 3, 3, 2, 2, 1, 1, 1, 1, 1, 1, 1, 1, 5, 4, 4, 3, 3, 2, 5, 4, 3, 2, 1, 1, 4, 3, 2, 2, 1, 1, 5, 5, 5, 5, 5, 5, 2, 2, 2, 2, 2, 2, 4, 4, 3, 3, 3, 2, 3, 3, 3, 2, 2, 1, 5, 4, 3, 2, 1, 1, 2, 2, 2, 2, 2, 2, 2, 2, 2, 2, 2, 2, 4, 4, 3, 3, 2, 2, 3, 2, 2, 1, 1, 1, 4, 3, 2, 2, 2, 1, 3, 3, 3, 3, 3, 3, 3, 3, 3, 3, 3, 3, 4, 4, 3, 3, 3, 2, 3, 3, 3, 3, 3, 3, 3, 2, 2, 2, 2, 2, 3, 3, 3, 3, 2, 2, 3, 3, 3, 3, 3, 3, 4, 4, 3, 3, 2, 2, 5, 4, 4, 4, 4, 4, 5, 5, 5, 5, 5, 5, 5, 4, 4, 3, 2, 2, 5, 3, 3, 2, 2, 1, 3, 3, 3, 3, 3, 3, 2, 2, 2, 2, 2, 2, 3, 3, 3, 3, 3, 3, 1, 1, 1, 1, 1, 1, 1, 1, 1, 1, 1, 1, 2, 2, 2, 2, 2, 2, 2, 2, 2, 1, 1, 1, 4, 3, 3, 3, 3, 3
 |2, 2, 2, 2, 1, 1, 4, 4, 3, 3, 2, 1, 1, 1, 1, 1, 1, 1, 3, 2, 2, 1, 1, 1, 3, 2, 2, 1, 1, 1, 1, 1, 1, 1, 1, 1, 3, 3, 3, 2, 2, 1, 4, 3, 3, 3, 2, 2, 4, 3, 3, 3, 2, 2, 3, 3, 3, 2, 2, 1, 3, 2, 2, 2, 1, 1, 5, 4, 4, 4, 4, 4, 3, 3, 3, 3, 3, 3, 4, 3, 3, 3, 3, 3, 2, 2, 2, 1, 1, 1, 3, 3, 3, 3, 3, 3, 3, 3, 3, 3, 2, 2, 4, 4, 4, 4, 3, 3, 5, 3, 3, 3, 2, 1, 5, 4, 4, 4, 4, 4, 3, 3, 3, 3, 3, 3, 4, 3, 3, 2, 2, 1, 2, 2, 2, 2, 2, 2, 1, 1, 1, 1, 1, 1, 3, 2, 2, 2, 2, 2, 4, 4, 3, 2, 1, 1, 3, 3, 3, 2, 2, 2, 1, 1, 1, 1, 1, 1, 4, 4, 4, 4, 4, 4, 4, 4, 4, 4, 4, 4, 4, 4, 4, 4, 4, 4, 4, 4, 4, 4, 3, 3, 2, 2, 2, 2, 2, 2, 3, 3, 3, 2, 2, 1, 3, 3, 3, 2, 2, 2, 3, 3, 2, 2, 2, 1, 4, 3, 3, 3, 3, 3, 5, 3, 3, 2, 2, 1, 2, 2, 2, 2, 2, 2, 2, 1, 1, 1, 1, 1, 4, 3, 3, 3, 3, 3, 3, 2, 2, 1, 1, 1, 1, 1, 1, 1, 1, 1, 1, 1, 1, 1, 1, 1, 5, 4, 4, 4, 3, 3, 2, 2, 2, 1, 1, 1, 4, 3, 3, 3, 3, 3, 4, 3, 3, 3, 3, 3, 3, 2, 2, 2, 2, 2, 4, 4, 3, 3, 3, 2
 |20, 17, 16, 14, 10, 9, 26, 23, 20, 19, 15, 12, 25, 23, 23, 20, 17, 16, 20, 19, 19, 18, 18, 17, 29, 22, 21, 16, 15, 10, 26, 24, 23, 16, 13, 12, 22, 20, 19, 16, 15, 15, 27, 23, 16, 12, 10, 5, 26, 25, 25, 24, 24, 24, 10, 7, 7, 4, 4, 2, 27, 26, 25, 24, 22, 21, 17, 17, 17, 17, 17, 17, 16, 16, 14, 14, 12, 12, 17, 16, 16, 16, 16, 16, 15, 15, 15, 14, 14, 13, 8, 6, 6, 3, 3, 2, 23, 19, 14, 14, 6, 2, 28, 25, 24, 23, 22, 20, 16, 16, 16, 16, 16, 16, 25, 20, 18, 16, 16, 12, 11, 10, 8, 8, 6, 5, 12, 9, 8, 5, 2, 2, 14, 12, 8, 7, 5, 1, 29, 21, 21, 14, 12, 8, 15, 14, 14, 13, 12, 12, 20, 20, 20, 20, 20, 20, 26, 23, 18, 15, 9, 6, 7, 7, 7, 6, 6, 5, 29, 25, 23, 20, 18, 17, 3, 3, 3, 3, 3, 3, 7, 7, 6, 5, 5, 4, 24, 24, 24, 24, 24, 24, 17, 16, 16, 15, 14, 14, 20, 19, 16, 10, 8, 4, 24, 24, 23, 23, 22, 22, 25, 24, 22, 22, 21, 20, 17, 14, 11, 7, 5, 1, 8, 8, 6, 5, 5, 4, 23, 19, 15, 13, 8, 1, 26, 25, 23, 23, 21, 20, 18, 17, 17, 16, 16, 15, 19, 17, 15, 12, 11, 9, 18, 17, 17, 16, 16, 16, 18, 17, 16, 14, 9, 9, 17, 13, 11, 9, 4, 4, 23, 21, 17, 16, 13, 10, 18, 16, 16, 14, 13, 12, 23, 19, 19, 16, 15, 13, 21, 21, 19, 18, 17, 17, 19, 17, 16, 14, 11, 11
 |28, 28, 28, 28, 28, 28, 19, 16, 16, 13, 9, 5, 23, 23, 20, 19, 17, 15, 19, 18, 18, 17, 14, 14, 4, 4, 4, 3, 3, 3, 16, 16, 16, 16, 15, 15, 6, 5, 5, 4, 4, 4, 25, 24, 23, 22, 19, 19, 24, 22, 18, 16, 10, 7, 26, 19, 17, 13, 9, 9, 18, 17, 13, 12, 7, 5, 23, 21, 20, 19, 18, 17, 18, 17, 18, 17, 18, 17, 21, 20, 19, 18, 19, 18, 19, 17, 13, 12, 10, 9, 8, 8, 7, 4, 4, 2, 20, 17, 16, 14, 12, 11, 26, 22, 19, 15, 10, 2, 26, 25, 25, 23, 23, 22, 15, 12, 10, 7, 6, 3, 9, 6, 6, 5, 4, 3, 18, 18, 17, 15, 15, 13, 29, 27, 26, 24, 24, 23, 4, 4, 4, 4, 4, 4, 29, 24, 19, 16, 9, 7, 28, 23, 20, 16, 11, 7, 14, 13, 11, 9, 7, 4, 11, 9, 9, 7, 6, 6, 10, 9, 7, 6, 6, 4, 17, 16, 15, 13, 12, 12, 6, 5, 5, 4, 3, 4, 27, 25, 23, 20, 16, 15, 28, 22, 17, 16, 9, 4, 16, 14, 14, 10, 8, 6, 21, 21, 21, 21, 21, 20, 23, 22, 22, 21, 19, 19, 29, 28, 24, 23, 21, 19, 7, 6, 6, 5, 5, 4, 12, 11, 10, 9, 8, 7, 16, 15, 14, 10, 8, 6, 27, 23, 22, 18, 18, 15, 18, 18, 17, 15, 14, 13, 18, 14, 12, 11, 8, 7, 22, 22, 21, 21, 20, 19, 24, 22, 21, 19, 16, 15, 17, 15, 13, 12, 11, 10, 22, 22, 21, 19, 19, 18, 24, 22, 21, 17, 17, 15, 23, 23, 22, 21, 20, 19, 23, 20, 18, 17, 14, 10|];